data/solutions/planning/wellformed/moderate/highest_rank_objective/wellformed_moderate_instance56_cplex.sol
Elapsed time: 1.01
Nodes explored: 3244
Nodes left: -
Relative gap: -
Upper bound: 19371.0
Lower bound: -
C[0]=625.0
C[1]=625.0
C[2]=625.0
C[3]=624.0
C[4]=623.0
y[0]=4
y[1]=1
y[2]=2
y[3]=2
y[4]=3
y[5]=4
y[6]=3
y[7]=0
y[8]=0
y[9]=1
y[10]=2
y[11]=0
y[12]=3
y[13]=1
y[14]=3
y[15]=0
y[16]=0
y[17]=1
y[18]=2
y[19]=3
y[20]=4
y[21]=2
y[22]=2
y[23]=4
y[24]=1
y[25]=4
y[26]=4
y[27]=3
y[28]=0
y[29]=2
